14,4	0,0	5,7	7,7	0,0	0,0	0,0	0,0	0,0	13,4
5,9	10,0	0,0	11,9	17,1	0,0	0,0	15,5	0,0	0,0
0,0	0,0	14,4	0,0	16,7	8,6	0,0	0,0	8,0	0,0
10,3	0,0	14,0	0,0	0,0	0,0	9,3	0,0	0,0	0,0
0,0	5,3	0,0	14,6	13,3	0,0	0,0	12,7	0,0	0,0
0,0	16,4	15,1	0,0	16,2	12,1	0,0	0,0	20,0	0,0
0,0	10,7	0,0	18,3	0,0	0,0	9,3	0,0	0,0	12,1
15,4	0,0	17,0	0,0	0,0	0,0	0,0	0,0	0,0	18,0
0,0	18,3	0,0	10,0	16,4	0,0	0,0	10,4	0,0	0,0
0,0	0,0	9,6	0,0	0,0	6,6	9,4	0,0	0,0	6,8
0,0	14,3	0,0	0,0	9,7	0,0	16,1	0,0	5,6	8,7
13,6	0,0	9,6	0,0	17,9	0,0	12,1	17,2	10,7	0,0
0,0	16,5	0,0	0,0	0,0	6,9	0,0	8,0	16,9	14,7
8,6	10,6	12,1	0,0	0,0	10,9	0,0	9,6	15,0	0,0
6,8	0,0	18,7	0,0	16,5	6,7	15,1	8,3	0,0	0,0
0,0	18,8	0,0	11,9	0,0	19,2	0,0	12,9	0,0	0,0
8,2	0,0	10,6	5,8	6,5	0,0	0,0	18,7	0,0	0,0
0,0	0,0	11,7	0,0	0,0	10,2	14,5	0,0	8,5	15,4
13,6	0,0	0,0	12,6	12,9	8,3	13,8	8,8	0,0	7,1
0,0	13,3	0,0	9,4	0,0	0,0	17,7	0,0	7,2	13,2
									
4,9	4,2	4,5	4,8	3,6	4,5	4,3	4,0	3,8	4,0
